CMD:
./solvers/bin/cadical --plain --no-reduce -t 1600 ./data/cnfs//kenflashp11/kenflashp11.47.cnf

c --- [ banner ] -------------------------------------------------------------
c 
c CaDiCaL SAT Solver
c Copyright (c) 2016-2024
c A. Biere, M. Fleury, N. Froleyks, K. Fazekas, F. Pollitt, T. Faller
c JKU Linz, University of Freiburg, TU Wien
c 
c Version 2.1.3 5296d3d2a9bf48c154ab2acb5e44625776d821bf
c g++ (Gentoo 12.3.1_p20230526 p2) 12.3.1 20230526 -Wall -Wextra -O3 -DNDEBUG
c Sat Aug 9 07:26:21 PDT 2025 Linux cedar2.int.cedar.computecanada.ca 5.14.0-362.24.2.el9_3.x86_64 x86_64
c 
c --- [ limit ] --------------------------------------------------------------
c 
c setting time limit to 1600 seconds real time (due to '-t 1600')
c 
c --- [ parsing input ] ------------------------------------------------------
c 
c reading DIMACS file from './data/cnfs//kenflashp11/kenflashp11.47.cnf'
c opening file to read './data/cnfs//kenflashp11/kenflashp11.47.cnf'
c found 'p cnf 302125 895611' header
c parsed 895611 clauses in 0.13 seconds process time
c 
c --- [ options ] ------------------------------------------------------------
c 
c   --compact=false                (different from default 'true')
c   --decompose=false              (different from default 'true')
c   --deduplicate=false            (different from default 'true')
c   --elim=false                   (different from default 'true')
c   --probe=false                  (different from default 'true')
c   --reduce=false                 (different from default 'true')
c   --subsume=false                (different from default 'true')
c   --ternary=false                (different from default 'true')
c   --transred=false               (different from default 'true')
c   --vivify=false                 (different from default 'true')
c 
c --- [ solving ] ------------------------------------------------------------
c 
c time measured in process time since initialization
c 
c  seconds   reductions  redundant  irredundant
c          MB    restarts       trail       variables
c           level   conflicts       glue          remaining
c 
c *  0.13 143  0 0   0    0    0  0% 0 888392 260047 86%
c {  0.13 143  0 0   0    0    0  0% 0 888392 260047 86%
c i  0.14 143 91 0   0   33   28 17% 5 888392 259976 86%
c i  0.14 143 91 0   0   38   32 17% 4 888392 259919 86%
c i  0.14 143 91 0   1   51   42 17% 5 888392 259888 86%
c i  0.21 146 293 0   1  148  138 42% 2 888392 259859 86%
c i  0.21 146 301 0   1  152  140 43% 2 888392 259740 86%
c i  0.21 146 303 0   1  153  140 44% 2 888392 259715 86%
c i  0.21 146 310 0   1  157  142 45% 2 888392 259596 86%
c i  0.21 146 313 0   1  158  142 45% 2 888392 259571 86%
c i  0.21 146 321 0   1  162  144 46% 2 888392 259475 86%
c i  0.21 146 323 0   1  163  144 47% 2 888392 259470 86%
c i  0.21 146 329 0   1  166  146 47% 2 888392 259369 86%
c i  0.21 146 334 0   1  169  148 48% 2 888392 259268 86%
c i  0.21 146 339 0   1  172  150 49% 2 888392 259167 86%
c i  0.21 146 344 0   1  175  152 49% 2 888392 259066 86%
c i  0.21 146 348 0   1  178  154 50% 2 888392 258965 86%
c i  0.21 146 352 0   1  181  156 50% 2 888392 258864 86%
c i  0.21 146 355 0   1  184  158 51% 2 888392 258763 86%
c i  0.21 146 358 0   1  187  160 51% 2 888392 258662 86%
c 
c  seconds    reductions  redundant  irredundant
c          MB     restarts       trail       variables
c            level   conflicts       glue          remaining
c 
c i  0.22 146 361 0   1  190  162 52% 2 888392 258561 86%
c i  0.22 146 363 0   1  193  164 52% 2 888392 258460 86%
c i  0.22 146 366 0   1  196  166 52% 2 888392 258359 86%
c i  0.22 146 368 0   1  199  168 53% 2 888392 258258 85%
c i  0.22 146 369 0   1  202  170 53% 2 888392 258157 85%
c i  0.22 146 371 0   1  205  172 53% 2 888392 258056 85%
c i  0.22 146 372 0   1  208  174 53% 2 888392 257955 85%
c i  0.22 146 373 0   1  211  176 53% 2 888392 257854 85%
c i  0.22 146 373 0   1  214  178 54% 2 888392 257753 85%
c i  0.22 146 374 0   1  217  180 54% 2 888392 257652 85%
c i  0.22 146 374 0   1  220  182 54% 2 888392 257551 85%
c i  0.22 146 374 0   1  223  184 54% 2 888392 257450 85%
c i  0.22 146 374 0   1  226  186 54% 2 888392 257349 85%
c i  0.22 146 374 0   1  229  188 54% 2 888392 257248 85%
c i  0.22 146 374 0   1  232  190 54% 2 888392 257147 85%
c i  0.22 146 373 0   1  235  192 54% 2 888392 257046 85%
c i  0.22 146 372 0   1  238  194 54% 2 888392 256945 85%
c i  0.22 146 372 0   1  241  196 53% 2 888392 256844 85%
c i  0.22 146 371 0   1  244  198 53% 2 888392 256743 85%
c i  0.22 146 370 0   1  247  200 53% 2 888392 256642 85%
c 
c  seconds    reductions  redundant  irredundant
c          MB     restarts       trail       variables
c            level   conflicts       glue          remaining
c 
c i  0.22 146 368 0   1  250  202 53% 2 888392 256541 85%
c i  0.23 146 367 0   1  253  204 53% 2 888392 256440 85%
c i  0.23 146 365 0   1  256  206 53% 2 888392 256339 85%
c i  0.23 146 364 0   1  259  208 52% 2 888392 256238 85%
c i  0.23 146 362 0   1  262  210 52% 2 888392 256137 85%
c i  0.23 146 360 0   1  265  212 52% 2 888392 256036 85%
c i  0.23 146 358 0   1  268  214 52% 2 888392 255935 85%
c i  0.23 146 356 0   1  271  216 51% 2 888392 255834 85%
c i  0.23 146 354 0   1  274  218 51% 2 888392 255733 85%
c i  0.23 146 352 0   1  277  220 51% 2 888392 255632 85%
c i  0.23 146 349 0   1  280  222 51% 2 888392 255531 85%
c i  0.23 146 343 0   1  287  226 50% 2 888392 255430 85%
c i  0.23 146 338 0   2  291  229 49% 2 888392 255390 85%
c i  0.23 146 307 0   8  321  251 46% 2 888392 255384 85%
c i  0.23 146 305 0   9  323  252 46% 2 888392 255378 85%
c }  0.23 146 302 0   9  328  253 46% 2 888392 255279 84%
c 0  0.23 146 302 0   9  328  253 46% 2 888392 255279 84%
c 
c --- [ result ] -------------------------------------------------------------
c 
s UNSATISFIABLE
c 
c --- [ run-time profiling ] -------------------------------------------------
c 
c process time taken by individual solving procedures
c (percentage relative to process time for solving)
c 
c         0.13  126.12% parse
c         0.10   99.90% search
c         0.10   97.50% unstable
c         0.00    2.39% lucky
c         0.00    0.00% simplify
c   =================================
c         0.10   44.14% solve
c 
c last line shows process time for solving
c (percentage relative to total process time)
c 
c --- [ statistics ] ---------------------------------------------------------
c 
c chronological:               275        83.84 %  of conflicts
c conflicts:                   328      3167.18    per second
c decisions:                  1221     11790.04    per second
c fixed:                     46846        15.51 %  of all variables
c learned:                     317        96.65 %  per conflict
c learned_lits:               1534       100.00 %  learned literals
c minimized:                     0         0.00 %  learned literals
c shrunken:                    341        22.23 %  learned literals
c minishrunken:                 22         1.43 %  learned literals
c otfs:                          1         0.30 %  of conflict
c propagations:             957988         9.25 M  per second
c restarts:                      9        36.44    interval
c subsumed:                      9         0.00 %  of all clauses
c strengthened:                  1         0.00 %  of all clauses
c 
c seconds are measured in process time for solving
c 
c --- [ resources ] ----------------------------------------------------------
c 
c total process time since initialization:         0.23    seconds
c total real time since initialization:            0.24    seconds
c maximum resident set size of process:          144.70    MB
c 
c --- [ shutting down ] ------------------------------------------------------
c 
c exit 20
